1705779
24,10,77,66,9,37,26,41,38,75,57,72,49,11,89,91,97,102,105,55,40,68,42,106,33,8,7,18,62,78,73,19,76,36,65,96,87,99,12,88,50,13,93,21,48,56,103,92,74,4,23,64,100,53,80,17,108,28,39,31,86,27,69,70,14,60,47,71,104,58,54,22,15,67,79,63,44,20,85,43,61,30,6,95,32,16,59,84,51,2,94,81,46,29,107,52,1,5,35,98,101,82,45,34,25,83,3,90,109